1625130600
1625153400
1625205600
1625239800
1625464800
1625499000
1625551200
1625585400
1625637600
1625671800
1625724900
1625758200
1625810400
1625844600
1626069600
1626103800
1626156000
1626190200
1626242400
1626276600
1626674400
1626708600
1626760800
1626795000
1626847200
1626881400
1626933600
1626967800
1627021800
1627051200
1627279200
1627313400
1627452000
1627486200
1627538400
1627572600
1627624800
1627657200
